; --proof-with-sharing --index-fresh-sorts --proof-define-skolems --proof-prune --proof-merge --disable-print-success --disable-banner --max-time=30
(set-option :produce-proofs true)
(set-logic AUFLIA)
(declare-fun x () Bool)
(declare-fun y () Bool)
(declare-fun a () Bool)
(declare-fun b () Bool)
(assert (= x x))
(assert (= x a))
(assert (not (= (= x x) (= x a))))
(check-sat)